<number of tasks>
28

<cycle time>
138

<task times>
1 70
2 59
3 33
4 6
5 1
6 27
7 17
8 62
9 31
10 53
11 21
12 19
13 108
14 52
15 5
16 8
17 97
18 8
19 47
20 67
21 17
22 8
23 3
24 21
25 107
26 3
27 2
28 72

<precedence relations>
1,2
1,3
1,4
1,5
1,8
1,19
1,21
1,22
1,23
1,24
1,26
2,6
2,17
3,28
4,28
5,28
6,7
7,18
8,9
9,10
10,11
10,12
11,15
12,13
13,14
13,16
14,28
15,28
16,28
17,28
18,28
19,20
20,28
21,28
22,28
23,28
24,25
25,28
26,27
27,28

<setup times forward>
1,2:7
1,3:3
1,5:6
1,19:7
1,21:3
1,22:3
1,23:4
1,24:3
1,26:3
2,3:10
2,4:7
2,5:13
2,6:10
2,8:7
2,10:10
2,11:7
2,12:11
2,13:7
2,14:13
2,15:13
2,16:13
2,17:11
2,20:5
2,21:4
2,22:4
2,23:11
2,24:10
2,25:4
2,26:10
2,27:11
3,2:10
3,4:3
3,5:3
3,7:1
3,8:3
3,9:10
3,11:3
3,12:1
3,13:3
3,14:3
3,15:3
3,16:3
3,17:1
3,18:3
3,19:10
3,20:5
3,21:6
3,22:6
3,23:1
3,25:6
3,27:1
3,28:3
4,2:7
4,3:3
4,5:6
4,6:3
4,7:4
4,9:7
4,10:3
4,12:4
4,14:6
4,15:6
4,16:6
4,17:4
4,19:7
4,20:2
4,21:3
4,22:3
4,23:4
4,24:3
4,25:3
4,26:3
4,27:4
4,28:6
5,2:13
5,3:3
5,4:6
5,6:3
5,7:2
5,8:6
5,9:13
5,10:3
5,11:6
5,12:2
5,13:6
5,17:2
5,18:6
5,19:13
5,20:8
5,21:9
5,22:9
5,23:2
5,24:3
5,25:9
5,26:3
5,27:2
6,4:3
6,5:3
6,7:1
6,8:3
6,9:10
6,11:3
6,12:1
6,13:3
6,14:3
6,15:3
6,16:3
6,17:1
6,19:10
6,20:5
6,21:6
6,22:6
6,23:1
6,25:6
6,27:1
7,3:1
7,4:4
7,5:2
7,8:4
7,9:11
7,10:1
7,11:4
7,13:4
7,14:2
7,15:2
7,16:2
7,18:4
7,19:11
7,20:6
7,21:7
7,22:7
7,24:1
7,25:7
7,26:1
8,2:7
8,3:3
8,5:6
8,6:3
8,7:4
8,9:7
8,17:4
8,19:7
8,20:2
8,21:3
8,22:3
8,23:4
8,24:3
8,25:3
8,26:3
8,27:4
9,3:10
9,4:7
9,5:13
9,6:10
9,7:11
9,10:10
9,17:11
9,18:7
9,20:5
9,21:4
9,22:4
9,23:11
9,24:10
9,25:4
9,26:10
9,27:11
10,2:10
10,4:3
10,5:3
10,7:1
10,11:3
10,12:1
10,17:1
10,18:3
10,19:10
10,20:5
10,21:6
10,22:6
10,23:1
10,25:6
10,27:1
11,2:7
11,3:3
11,5:6
11,6:3
11,7:4
11,12:4
11,14:6
11,15:6
11,16:6
11,17:4
11,19:7
11,20:2
11,21:3
11,22:3
11,23:4
11,24:3
11,25:3
11,26:3
11,27:4
12,2:11
12,3:1
12,4:4
12,5:2
12,6:1
12,11:4
12,13:4
12,15:2
12,18:4
12,19:11
12,20:6
12,21:7
12,22:7
12,24:1
12,25:7
12,26:1
13,2:7
13,3:3
13,5:6
13,6:3
13,7:4
13,14:6
13,15:6
13,16:6
13,17:4
13,19:7
13,20:2
13,21:3
13,22:3
13,23:4
13,24:3
13,25:3
13,26:3
13,27:4
14,2:13
14,3:3
14,4:6
14,6:3
14,7:2
14,11:6
14,17:2
14,18:6
14,19:13
14,20:8
14,21:9
14,22:9
14,23:2
14,24:3
14,25:9
14,26:3
14,27:2
15,2:13
15,3:3
15,4:6
15,6:3
15,7:2
15,12:2
15,13:6
15,17:2
15,18:6
15,19:13
15,20:8
15,21:9
15,22:9
15,23:2
15,24:3
15,25:9
15,26:3
15,27:2
16,2:13
16,3:3
16,4:6
16,6:3
16,7:2
16,11:6
16,17:2
16,18:6
16,19:13
16,20:8
16,21:9
16,22:9
16,23:2
16,24:3
16,25:9
16,26:3
16,27:2
17,3:1
17,4:4
17,5:2
17,6:1
17,8:4
17,9:11
17,10:1
17,11:4
17,13:4
17,14:2
17,15:2
17,16:2
17,18:4
17,19:11
17,20:6
17,21:7
17,22:7
17,24:1
17,25:7
17,26:1
17,28:2
18,3:3
18,5:6
18,9:7
18,10:3
18,12:4
18,14:6
18,15:6
18,16:6
18,17:4
18,19:7
18,20:2
18,21:3
18,22:3
18,23:4
18,24:3
18,25:3
18,26:3
18,27:4
18,28:6
19,3:10
19,4:7
19,5:13
19,6:10
19,7:11
19,8:7
19,10:10
19,11:7
19,12:11
19,13:7
19,14:13
19,15:13
19,16:13
19,17:11
19,18:7
19,20:5
19,21:4
19,22:4
19,23:11
19,24:10
19,25:4
19,26:10
19,27:11
20,2:5
20,3:5
20,4:2
20,5:8
20,6:5
20,7:6
20,8:2
20,9:5
20,10:5
20,11:2
20,12:6
20,13:2
20,14:8
20,15:8
20,16:8
20,17:6
20,18:2
20,21:1
20,22:1
20,23:6
20,24:5
20,25:1
20,26:5
20,27:6
20,28:8
21,2:4
21,3:6
21,4:3
21,5:9
21,6:6
21,7:7
21,8:3
21,9:4
21,10:6
21,11:3
21,12:7
21,13:3
21,14:9
21,15:9
21,16:9
21,17:7
21,18:3
21,19:4
21,20:1
21,23:7
21,24:6
21,26:6
21,27:7
21,28:9
22,2:4
22,3:6
22,4:3
22,5:9
22,6:6
22,7:7
22,8:3
22,9:4
22,10:6
22,11:3
22,12:7
22,13:3
22,14:9
22,15:9
22,16:9
22,17:7
22,18:3
22,19:4
22,20:1
22,23:7
22,24:6
22,26:6
22,27:7
22,28:9
23,2:11
23,3:1
23,4:4
23,5:2
23,6:1
23,8:4
23,9:11
23,10:1
23,11:4
23,13:4
23,14:2
23,15:2
23,16:2
23,18:4
23,19:11
23,20:6
23,21:7
23,22:7
23,24:1
23,25:7
23,26:1
23,28:2
24,2:10
24,4:3
24,5:3
24,7:1
24,8:3
24,9:10
24,11:3
24,12:1
24,13:3
24,14:3
24,15:3
24,16:3
24,17:1
24,18:3
24,19:10
24,20:5
24,21:6
24,22:6
24,23:1
24,25:6
24,27:1
25,2:4
25,3:6
25,4:3
25,5:9
25,6:6
25,7:7
25,8:3
25,9:4
25,10:6
25,11:3
25,12:7
25,13:3
25,14:9
25,15:9
25,16:9
25,17:7
25,18:3
25,19:4
25,20:1
25,23:7
25,26:6
25,27:7
25,28:9
26,2:10
26,4:3
26,5:3
26,7:1
26,8:3
26,9:10
26,11:3
26,12:1
26,13:3
26,14:3
26,15:3
26,16:3
26,17:1
26,18:3
26,19:10
26,20:5
26,21:6
26,22:6
26,23:1
26,25:6
26,27:1
27,2:11
27,3:1
27,4:4
27,5:2
27,6:1
27,8:4
27,9:11
27,10:1
27,11:4
27,13:4
27,14:2
27,15:2
27,16:2
27,18:4
27,19:11
27,20:6
27,21:7
27,22:7
27,24:1
27,25:7
27,28:2

<setup times backward>
2,1:7
2,3:10
2,4:7
2,5:13
2,8:7
2,10:10
2,11:7
2,12:11
2,13:7
2,14:13
2,15:13
2,16:13
2,20:5
2,21:4
2,22:4
2,23:11
2,24:10
2,25:4
2,26:10
2,27:11
3,5:3
3,7:1
3,12:1
3,14:3
3,15:3
3,16:3
3,17:1
3,23:1
3,27:1
4,3:3
4,5:6
4,6:3
4,7:4
4,10:3
4,12:4
4,14:6
4,15:6
4,16:6
4,17:4
4,23:4
4,24:3
4,26:3
4,27:4
6,5:3
6,12:1
6,14:3
6,15:3
6,16:3
6,17:1
6,23:1
6,27:1
7,5:2
7,14:2
7,15:2
7,16:2
8,3:3
8,5:6
8,6:3
8,7:4
8,17:4
8,23:4
8,24:3
8,26:3
8,27:4
9,1:7
9,3:10
9,4:7
9,5:13
9,6:10
9,7:11
9,8:7
9,17:11
9,18:7
9,20:5
9,21:4
9,22:4
9,23:11
9,24:10
9,25:4
9,26:10
9,27:11
10,5:3
10,7:1
10,17:1
10,23:1
10,27:1
11,3:3
11,5:6
11,6:3
11,7:4
11,10:3
11,12:4
11,14:6
11,16:6
11,17:4
11,23:4
11,24:3
11,26:3
11,27:4
12,5:2
12,15:2
13,3:3
13,5:6
13,6:3
13,7:4
13,10:3
13,12:4
13,15:6
13,17:4
13,23:4
13,24:3
13,26:3
13,27:4
17,5:2
17,14:2
17,15:2
17,16:2
18,3:3
18,5:6
18,6:3
18,7:4
18,10:3
18,12:4
18,14:6
18,15:6
18,16:6
18,17:4
18,23:4
18,24:3
18,26:3
18,27:4
19,1:7
19,3:10
19,4:7
19,5:13
19,6:10
19,7:11
19,8:7
19,10:10
19,11:7
19,12:11
19,13:7
19,14:13
19,15:13
19,16:13
19,17:11
19,18:7
19,21:4
19,22:4
19,23:11
19,24:10
19,25:4
19,26:10
19,27:11
20,1:2
20,3:5
20,4:2
20,5:8
20,6:5
20,7:6
20,8:2
20,10:5
20,11:2
20,12:6
20,13:2
20,14:8
20,15:8
20,16:8
20,17:6
20,18:2
20,23:6
20,24:5
20,26:5
20,27:6
21,1:3
21,3:6
21,4:3
21,5:9
21,6:6
21,7:7
21,8:3
21,10:6
21,11:3
21,12:7
21,13:3
21,14:9
21,15:9
21,16:9
21,17:7
21,18:3
21,20:1
21,23:7
21,24:6
21,26:6
21,27:7
22,1:3
22,3:6
22,4:3
22,5:9
22,6:6
22,7:7
22,8:3
22,10:6
22,11:3
22,12:7
22,13:3
22,14:9
22,15:9
22,16:9
22,17:7
22,18:3
22,20:1
22,23:7
22,24:6
22,26:6
22,27:7
23,5:2
23,14:2
23,15:2
23,16:2
24,5:3
24,7:1
24,12:1
24,14:3
24,15:3
24,16:3
24,17:1
24,23:1
24,27:1
25,1:3
25,3:6
25,4:3
25,5:9
25,6:6
25,7:7
25,8:3
25,10:6
25,11:3
25,12:7
25,13:3
25,14:9
25,15:9
25,16:9
25,17:7
25,18:3
25,20:1
25,23:7
25,24:6
25,26:6
25,27:7
26,5:3
26,7:1
26,12:1
26,14:3
26,15:3
26,16:3
26,17:1
26,23:1
27,5:2
27,14:2
27,15:2
27,16:2

<end>

<optimal SALBP-1 value>
8


<rand seed>
467321153

